NAME : amtsp.74097.tour
COMMENT : Length = 74097
COMMENT : Found by LKH-3 [Keld Helsgaun] Sun Dec 24 06:48:34 2023
TYPE : TOUR
DIMENSION : 93
TOUR_SECTION
1
88
86
87
80
90
48
50
46
49
47
35
32
31
33
34
70
23
21
22
24
19
92
73
71
72
75
67
66
68
37
40
36
39
38
52
54
51
55
53
60
57
56
58
59
93
2
84
4
12
11
14
17
16
18
25
20
8
9
6
10
7
85
82
81
83
5
91
65
63
61
62
64
77
76
78
89
79
43
44
41
45
42
74
69
28
29
26
30
27
13
15
3
-1
EOF
